&CONTROL
   calculation      = 'relax'
   restart_mode     = 'from_scratch'
   prefix           = 'tutorial'
   pseudo_dir       = '/home/valmzztt/DFT_MnNiSb/runs2/pseudos'
/
&SYSTEM
   ecutwfc          = 40.424222147
   ecutrho          = 202.1211107
   occupations      = 'smearing'
   degauss          = 0.0146997171
   ntyp             = 3
   nat              = 32
   ibrav            = 0
/
&ELECTRONS
   electron_maxstep = 200
/
&IONS
/
&CELL
/

ATOMIC_SPECIES
Ni 58.6934 Ni.pbe-spn-kjpaw_psl.1.0.0.UPF
Sb 121.76 Sb.pbe-n-kjpaw_psl.1.0.0.UPF
Mn 54.938044 Mn.pbe-spn-kjpaw_psl.0.3.1.UPF

K_POINTS automatic
3 3 3  0 0 0

CELL_PARAMETERS angstrom
7.29160810000000 0.00000000000000 0.00000000000000
-3.64580405000000 6.31471784904038 0.00000000000000
0.00000000000000 0.00000000000000 10.09013200000000

ATOMIC_POSITIONS angstrom
Ni -1.8229020250 3.1573589245 0.0000000000 
Ni -1.8229020250 3.1573589245 2.5225330000 
Ni -1.8229020250 3.1573589245 5.0450660000 
Ni -1.8229020250 3.1573589245 7.5675990000 
Sb -1.8229020432 5.2622648847 1.2612665000 
Sb -1.8229020432 5.2622648847 6.3063325000 
Ni 0.0000000000 0.0000000000 0.0000000000 
Mn 0.0000000000 0.0000000000 2.5225330000 
Ni 0.0000000000 0.0000000000 5.0450660000 
Mn 0.0000000000 0.0000000000 7.5675990000 
Sb -0.0000000182 2.1049059602 1.2612665000 
Sb -0.0000000182 2.1049059602 6.3063325000 
Sb 0.0000000182 4.2098118888 3.7837995000 
Sb 0.0000000182 4.2098118888 8.8288655000 
Sb 1.8229020432 1.0524529643 3.7837995000 
Sb 1.8229020432 1.0524529643 8.8288655000 
Ni 1.8229020250 3.1573589245 0.0000000000 
Ni 1.8229020250 3.1573589245 2.5225330000 
Ni 1.8229020250 3.1573589245 5.0450660000 
Ni 1.8229020250 3.1573589245 7.5675990000 
Sb 1.8229020068 5.2622648847 1.2612665000 
Sb 1.8229020068 5.2622648847 6.3063325000 
Ni 3.6458040500 0.0000000000 0.0000000000 
Ni 3.6458040500 0.0000000000 2.5225330000 
Ni 3.6458040500 0.0000000000 5.0450660000 
Ni 3.6458040500 0.0000000000 7.5675990000 
Sb 3.6458040318 2.1049059602 1.2612665000 
Sb 3.6458040318 2.1049059602 6.3063325000 
Sb 3.6458040682 4.2098118888 3.7837995000 
Sb 3.6458040682 4.2098118888 8.8288655000 
Sb 5.4687060932 1.0524529643 3.7837995000 
Sb 5.4687060932 1.0524529643 8.8288655000 

